%BLOCK LATTICE_CART
      16.395185930250001      -9.465765010246004       0.000000000000000
       0.000000000000000      18.931530020490005       0.000000000000000
       0.000000000000000       0.000000000000000       9.999213039981003
%ENDBLOCK LATTICE_CART

%BLOCK POSITIONS_FRAC
  H   0.2837770000000272   0.5183429999999993   0.6363750000000089
  C   0.0756034347004261   0.0756034355668188   0.5000000004346838
  C   0.1496332166229109   0.1496332194727909   0.5000000000710554
  C   0.2145289813410105   0.2145289823390267   0.4999999994942101
  C   0.4243965644332830  -0.0000000008663756   0.5000000004346838
  C   0.3503667805273502  -0.0000000028498314   0.5000000000710554
  C   0.2854710176611356  -0.0000000009979597   0.4999999994942101
  C   0.0000000008664097   0.4243965652996533   0.5000000004346838
  C   0.0000000028498759   0.3503667833771616   0.5000000000710554
  C   0.0000000009980059   0.2854710186590618   0.4999999994942101
  C   0.4243965644332830   0.4243965652997035   0.5000000004346838
  C   0.3503667805273502   0.3503667833772185   0.5000000000710554
  C   0.2854710176611356   0.2854710186591254   0.4999999994942101
  C   0.0000000008664097   0.0756034355668092   0.5000000004346838
  C   0.0000000028498759   0.1496332194727669   0.5000000000710554
  C   0.0000000009980059   0.2145289823389440   0.4999999994942101
  C   0.0756034347004261  -0.0000000008663847   0.5000000004346838
  C   0.1496332166229109  -0.0000000028498642   0.5000000000710554
  C   0.2145289813410105  -0.0000000009979935   0.4999999994942101
  C   0.5756034347004869   0.0756034355668651   0.5000000004346838
  C   0.6496332166229721   0.1496332194728215   0.5000000000710554
  C   0.7145289813411324   0.2145289823390877   0.4999999994942101
  C   0.9243965644334052  -0.0000000008663143   0.5000000004346838
  C   0.8503667805277159  -0.0000000028496485   0.5000000000710554
  C   0.7854710176613184  -0.0000000009978683   0.4999999994942101
  C   0.5000000008665348   0.4243965652997158   0.5000000004346838
  C   0.5000000028499828   0.3503667833772152   0.5000000000710554
  C   0.5000000009980978   0.2854710186591342   0.4999999994942101
  C   0.9243965644334052   0.4243965652997647   0.5000000004346838
  C   0.8503667805277159   0.3503667833774012   0.5000000000710554
  C   0.7854710176613184   0.2854710186592169   0.4999999994942101
  C   0.5000000008665348   0.0756034355668719   0.5000000004346838
  C   0.5000000028499828   0.1496332194728203   0.5000000000710554
  C   0.5000000009980978   0.2145289823390165   0.4999999994942101
  C   0.5756034347004869  -0.0000000008663701   0.5000000004346838
  C   0.6496332166229721  -0.0000000028498335   0.5000000000710554
  C   0.7145289813411324  -0.0000000009978797   0.4999999994942101
  C   0.0756034347004261   0.5756034355668872   0.5000000004346838
  C   0.1496332166229109   0.6496332194729493   0.5000000000710554
  C   0.2145289813410105   0.7145289823390265   0.4999999994942101
  C   0.4243965644332830   0.4999999991336770   0.5000000004346838
  C   0.3503667805273503   0.4999999971502213   0.5000000000710554
  C   0.2854710176611356   0.4999999990020931   0.4999999994942101
  C   0.0000000008664097   0.9243965652998112   0.5000000004346838
  C   0.0000000028498759   0.8503667833773729   0.5000000000710554
  C   0.0000000009980059   0.7854710186589557   0.4999999994942101
  C   0.4243965644332830   0.9243965652998086   0.5000000004346838
  C   0.3503667800000003   0.8503667799999545   0.5000000000000497
  C   0.2854710176611356   0.7854710186589140   0.4999999994942101
  C   0.0000000008664097   0.5756034355668619   0.5000000004346838
  C   0.0000000028498759   0.6496332194727668   0.5000000000710554
  C   0.0000000009980059   0.7145289823387852   0.4999999994942101
  C   0.0756034347004261   0.4999999991336521   0.5000000004346838
  C   0.1496332166229109   0.4999999971501882   0.5000000000710554
  C   0.2145289813410105   0.4999999990020591   0.4999999994942101
  C   0.5756034347004869   0.5756034355669178   0.5000000004346838
  C   0.6496332166229721   0.6496332194728741   0.5000000000710554
  C   0.7145289813411324   0.7145289823390875   0.4999999994942101
  C   0.9243965644334052   0.4999999991337382   0.5000000004346838
  C   0.8503667805277159   0.4999999971504040   0.5000000000710554
  C   0.7854710176613184   0.4999999990021843   0.4999999994942101
  C   0.5000000008665348   0.9243965652995040   0.5000000004346838
  C   0.5000000028499828   0.8503667833770567   0.5000000000710554
  C   0.5000000009980978   0.7854710186591604   0.4999999994942101
  C   0.9243965644334052   0.9243965652998174   0.5000000004346838
  C   0.8503667805277159   0.8503667833774538   0.5000000000710554
  C   0.7854710176613184   0.7854710186592693   0.4999999994942101
  C   0.5000000008665348   0.5756034355669245   0.5000000004346838
  C   0.5000000028499828   0.6496332194728729   0.5000000000710554
  C   0.5000000009980978   0.7145289823390427   0.4999999994942101
  C   0.5756034347004869   0.4999999991336824   0.5000000004346838
  C   0.6496332166229721   0.4999999971502190   0.5000000000710554
  C   0.7145289813411324   0.4999999990021201   0.4999999994942101
  C   0.3934839999999703   0.6065299999999765   0.6410220000000296
  O   0.4526159999999980   0.6540639999999846   0.7029530000000235
  O   0.3247330000000077   0.5512649999999928   0.7029530000000235
 Ag   0.3934837276229430   0.6065302751523841   0.5001896946183579
%ENDBLOCK POSITIONS_FRAC

%BLOCK KPOINTS_LIST
   0.0000000000000000   0.0000000000000000   0.0000000000000000       1.000000000000000
%ENDBLOCK KPOINTS_LIST

FIX_ALL_CELL : true

FIX_COM : false
%BLOCK IONIC_CONSTRAINTS
%ENDBLOCK IONIC_CONSTRAINTS

%BLOCK EXTERNAL_EFIELD
    0.0000000000     0.0000000000     0.0000000000 
%ENDBLOCK EXTERNAL_EFIELD

%BLOCK EXTERNAL_PRESSURE
    0.0000000000    0.0000000000    0.0000000000
                    0.0000000000    0.0000000000
                                    0.0000000000
%ENDBLOCK EXTERNAL_PRESSURE

%BLOCK SPECIES_MASS
       H      1.0080000162
       C     12.0109996796
       O     15.9989995956
      Ag    107.8679962158
%ENDBLOCK SPECIES_MASS

%BLOCK SPECIES_POT
       H  H_00PBE.usp
       C  C_00PBE.usp
       O  O_00PBE.usp
      Ag  Ag_00PBE.usp
%ENDBLOCK SPECIES_POT

%BLOCK SPECIES_LCAO_STATES
       H         1
       C         2
       O         2
      Ag         3
%ENDBLOCK SPECIES_LCAO_STATES

